100 151988
1 63 7 65 85 69 66 56 87 64 35 81 74 14 98 32 16 95 13 46 24 52 88 99 19 22 49 40 18 12 93 31 80 54 86 47 5 21 71 55 96 58 100 25 83 34 92 84 38 36 10 15 91 50 17 29 79 41 43 76 97 30 68 48 45 2 44 60 59 78 23 77 51 61 9 82 75 11 20 26 53 67 73 8 57 39 90 42 3 37 28 33 94 27 4 72 89 62 70 6 
